
#-------------------------------------------------------------------------
#input gravitational map - used by python for gravitational field mapping with lammps input for gravitational field.
#-------------------------------------------------------------------------
#compilation: with 'map.py' run file
#-------------------------------------------------------------------------
#                          0.1 version
#                            09/2021
#Bruno Morini                          
#-------------------------------------------------------------------------

#-------------------------------------------------------------------------#simulation parameters
#-------------------------------------------------------------------------

units	           si #unit system

atom_style         hybrid sphere charge #(sphere and charge to granular charger particles)

boundary           f f f #boundary type 

read_data          /home/bruno/ic/simulations/gmap/lmp/data/body.data group gd #data file

newton             on #Newton 3 law on

#-------------------------------------------------------------------------#potential settings
#-------------------------------------------------------------------------

pair_style         coul/cut 1000.0 #standard Coulombic interaction potential E=Cqiqj/er - coul/cut cutoff
pair_coeff         * *

dielectric         -1.0 #dielectric constant e

#C is energy-conversion constant = 1/4*pi*epsilon_0 = 1/4*pi*(8.8541878176*10⁻12) (in vacuum) = 8.987554833*10^9

#-------------------------------------------------------------------------#ensemble update settings
#-------------------------------------------------------------------------

neighbor           0.01 multi #pairwise neighbor lists, cutoff distance equal to the their force cutoff plus the skin distance are stored in the list - neighbor skin style

datfileneighbor #number of particles in neighbor list, page - number of memory is allocated for the neighbor lists - 10x one

fix                1 all nve #update assemble nve
 
createparticles

neigh_modify       exclude group gd gd check no #exclude - atoms neighbor list that won't interact  

compute            pe gpe pe/atom

#-------------------------------------------------------------------------#output settings
#-------------------------------------------------------------------------

dump               dpe gpe custom 1 /home/bruno/ic/simulations/gmap/lmp/out/dump.pe c_pe

#-------------------------------------------------------------------------#run settings
#-------------------------------------------------------------------------

timestep           1.0 #step interval 

run                1 #run steps

