
#---------------------------------------------------------------------------
#input gravitional_map - used by lammps for simulations in gravitional fild with gran/hertz/history - coul/msm potential
#---------------------------------------------------------------------------
#compilation: lmp_serial < in."input-name" #in serial mode
#-----------------------------------------------------------
#                                       1.0 version
#                                       Bruno Morini
#more:https://lammps.sandia.gov/doc/Manual.html
#---------------------------------------------------------------------------#Simulation parameters
#---------------------------------------------------------------------------
units	             si 

atom_style         hybrid sphere charge #(sphere and charge to granular charger particles)

boundary           f f f 

atom_modify        map yes

read_data          /home/bruno/ic/simulations/gmap/impact/0.2/lammps/301.data group g_1
read_data          /home/bruno/ic/simulations/gmap/impact/0.2/lammps/51.data group g_2 add append shift -15 0 0

newton             on

timestep	       1.0e-4

#---------------------------------------------------------------------------#Potential settings
#---------------------------------------------------------------------------

kspace_style       msm/cg 1.0e-4 #(msm/cg value = accuracy (smallq) - accuracy = desired relative error in forces - smallq = cutoff for charges to be considered (optional) (charge units))

kspace_modify      pressure/scalar no #(If this option is turned on, only the scalar pressure (i.e. (Pxx + Pyy + Pzz)/3.0) will be computed)

kspace_modify      cutoff/adjust yes #(If this option is turned on, the Coulombic cutoff will be automatically adjusted at the beginning of the run to give the desired estimated error)

pair_style         hybrid/overlay gran/hertz/history 200000.0 70000.0 50.0 30.0 0.5 0 coul/msm 200.0
pair_coeff         * * coul/msm
pair_coeff         * * gran/hertz/history

dielectric         -1.0 #(dialetric constant for coulomb law)

comm_modify        vel yes #(ghost atoms)

#---------------------------------------------------------------------------#Neighbor settings
#---------------------------------------------------------------------------

neighbor           1.0e-9 bin #(This command sets parameters that affect the building of pairwise neighbor lists. All atom pairs within a neighbor cutoff distance equal to the their force cutoff plus the skin distance are stored in the list.)

neigh_modify       page 1000000 #(nuumber of neighbor interactions)
neigh_modify       one 100000 #(nuumber of neighbor interactions)

#---------------------------------------------------------------------------#Ensemble update settings
#---------------------------------------------------------------------------
 
fix                1 all nve #(integration to update position and velocity for atoms in the group each timestep. V is volume; E is energy. This creates a system trajectory consistent with the microcanonical ensemble.)

#---------------------------------------------------------------------------#Vector forces calculations and settings
#---------------------------------------------------------------------------

velocity            g_2 set 2.0 0.4 0.0 

#---------------------------------------------------------------------------#Output simulation
#---------------------------------------------------------------------------

thermo             1000

dump               3 all atom 1000 /home/bruno/ic/simulations/gmap/impact/0.2/lammps/dump/dump.lammpstrj 

#---------------------------------------------------------------------------

label               looprun

  variable          rloop loop 320 #(loop from N1 to N2)      
  
    run             1000

    write_data      /home/bruno/ic/simulations/gmap/impact/0.2/lammps/data/*.data

next                rloop #(update loop)

jump                /home/bruno/ic/simulations/gmap/impact/0.2/lammps/in.impact looprun#(start over the loop)

#---------------------------------------------------------------------------
